n=4;  
m=8; 
A = [30, 70, 45, 22, 79, 60, 59, 54];
V = [67, 21, 90, 99, 28, 78, 61, 15];
S = [1, 2, 3, 3, 1, 4, 1, 2];
c = [| 63, 21, 57, 23, 12, 90, 41, 49,
     | 90, 71, 69, 63, 54, 43, 37, 79,
     | 15, 48, 26, 66, 61, 88, 16, 23,
     | 75, 36, 32, 29, 21, 27, 82, 31,
     |];